0 67 105
1 96 117
2 114 122
3 126 128
4 112 128
5 102 128
6 123 130
7 122 130
8 113 128
9 114 129
10 112 128
11 113 127
12 104 126
13 112 126
14 124 126
15 122 126
16 99 126
17 127 127
18 114 129
19 118 128
20 107 127
21 125 126
22 120 125
23 105 122
24 114 121
25 113 121
26 111 119
27 107 118
28 110 116
29 77 113
30 106 113
31 112 113
32 112 112
33 86 112
34 104 112
35 82 111
36 107 110
37 97 105
38 101 103
39 97 104
40 100 102
41 93 103
42 94 102
43 76 100
44 84 98
45 58 97
46 84 93
47 68 89
48 80 87
49 72 87
50 78 82
51 80 81
52 77 81
53 64 82
54 63 82
55 76 80
56 75 79
57 77 78
58 70 77
59 60 73
60 59 74
61 71 74
62 62 71
63 55 71
64 60 70
65 44 67
66 64 66
67 61 66
68 49 66
69 57 65
70 60 63
71 57 61
72 50 59
73 52 59
74 38 56
75 43 54
76 54 56
77 51 54
78 51 51
79 34 52
80 42 51
81 36 48
82 40 45
83 41 44
84 37 43
85 42 45
86 23 42
87 26 39
88 34 36
89 33 33
90 25 26
91 22 29
92 24 26
93 23 27
94 18 26
95 17 27
96 20 25
97 14 24
98 21 23
99 17 22
100 17 20
101 14 21
102 17 19
103 9 16
104 9 12
105 11 13
106 8 12
107 9 11
108 7 9
109 8 9
110 4 5
111 6 6
112 3 5
113 1 4
114 3 3
115 3 3
116 2 2
117 2 2

